unsat
( c0
  c1
  c10
  c1001
  c1003
  c1004
  c1005
  c1006
  c1013
  c1014
  c1015
  c1016
  c1019
  c1020
  c1021
  c1022
  c1023
  c1024
  c1029
  c1030
  c1036
  c1039
  c104
  c1040
  c1041
  c1045
  c1047
  c1048
  c105
  c1052
  c1053
  c1054
  c1055
  c1057
  c1075
  c1078
  c1081
  c1083
  c1084
  c1090
  c1093
  c1094
  c1095
  c1102
  c1104
  c1105
  c1108
  c1109
  c111
  c1110
  c1111
  c1113
  c1118
  c1119
  c1121
  c1122
  c1125
  c1127
  c113
  c1134
  c1135
  c1136
  c1137
  c1141
  c1142
  c1143
  c1144
  c1146
  c1164
  c1167
  c1170
  c1172
  c1173
  c1175
  c1176
  c1179
  c1181
  c1191
  c1192
  c1193
  c1194
  c1197
  c1198
  c1199
  c1200
  c1202
  c1205
  c1207
  c1208
  c1210
  c1211
  c1214
  c1216
  c1217
  c1218
  c1219
  c1223
  c1224
  c1225
  c1226
  c123
  c1230
  c1231
  c1232
  c1233
  c1234
  c1235
  c1250
  c1253
  c1256
  c1259
  c1261
  c1262
  c1264
  c1265
  c1268
  c127
  c1270
  c1271
  c1272
  c1273
  c1280
  c1281
  c1282
  c1283
  c1286
  c1287
  c1288
  c1289
  c129
  c1290
  c1291
  c1296
  c1297
  c13
  c1303
  c1306
  c1307
  c1308
  c131
  c1312
  c1314
  c1315
  c1319
  c132
  c1320
  c1321
  c1322
  c1324
  c1342
  c1345
  c1348
  c1350
  c1351
  c1357
  c1360
  c1361
  c1362
  c1369
  c1371
  c1372
  c1375
  c1376
  c1377
  c1378
  c1380
  c1385
  c1386
  c1388
  c1389
  c1392
  c1394
  c14
  c140
  c1401
  c1402
  c1403
  c1404
  c1408
  c1409
  c1410
  c1411
  c1413
  c143
  c1431
  c1434
  c1437
  c1439
  c1440
  c1442
  c1443
  c1446
  c1448
  c1458
  c1459
  c146
  c1460
  c1461
  c1464
  c1465
  c1466
  c1467
  c1469
  c1472
  c1474
  c1475
  c1477
  c1478
  c148
  c1481
  c1483
  c1484
  c1485
  c1486
  c1490
  c1491
  c1492
  c1493
  c1497
  c1498
  c1499
  c1500
  c1501
  c1502
  c151
  c1517
  c1520
  c1523
  c1526
  c1528
  c1529
  c1531
  c1532
  c1535
  c1537
  c1538
  c1539
  c1540
  c1547
  c1548
  c1549
  c1550
  c1553
  c1554
  c1555
  c1556
  c1557
  c1558
  c1563
  c1564
  c157
  c1570
  c1573
  c1574
  c1575
  c1579
  c158
  c1581
  c1582
  c1586
  c1587
  c1588
  c1589
  c1591
  c1609
  c1612
  c1615
  c1617
  c1618
  c162
  c1624
  c1627
  c1628
  c1629
  c163
  c1636
  c1638
  c1639
  c1642
  c1643
  c1644
  c1645
  c1647
  c165
  c1653
  c1659
  c167
  c1670
  c1671
  c1675
  c1676
  c1678
  c1698
  c1704
  c1707
  c1713
  c1727
  c1728
  c1731
  c1732
  c1734
  c1740
  c1742
  c1743
  c1748
  c1749
  c1750
  c1752
  c1753
  c1754
  c1757
  c1758
  c1762
  c1763
  c1765
  c1767
  c1768
  c1769
  c1772
  c1774
  c1777
  c1778
  c1780
  c1782
  c1783
  c1784
  c1787
  c1788
  c1792
  c1793
  c1795
  c1797
  c1799
  c18
  c1800
  c1802
  c1804
  c1808
  c1810
  c1813
  c1814
  c1818
  c1823
  c1825
  c1827
  c1832
  c1834
  c1837
  c188
  c19
  c196
  c197
  c200
  c202
  c205
  c213
  c214
  c215
  c218
  c220
  c223
  c228
  c229
  c235
  c24
  c240
  c246
  c247
  c25
  c251
  c252
  c254
  c256
  c274
  c280
  c283
  c289
  c292
  c293
  c294
  c30
  c301
  c303
  c305
  c307
  c308
  c310
  c312
  c317
  c318
  c32
  c320
  c321
  c324
  c326
  c33
  c333
  c334
  c335
  c336
  c340
  c341
  c342
  c343
  c345
  c363
  c366
  c369
  c372
  c374
  c375
  c378
  c380
  c390
  c391
  c392
  c393
  c394
  c396
  c397
  c398
  c399
  c40
  c401
  c404
  c406
  c407
  c409
  c41
  c410
  c413
  c415
  c416
  c417
  c418
  c422
  c423
  c424
  c425
  c429
  c43
  c430
  c431
  c432
  c433
  c434
  c44
  c449
  c452
  c455
  c458
  c461
  c463
  c464
  c467
  c469
  c470
  c471
  c472
  c479
  c480
  c481
  c482
  c483
  c485
  c486
  c487
  c488
  c489
  c490
  c495
  c496
  c5
  c50
  c502
  c505
  c506
  c507
  c511
  c513
  c514
  c518
  c519
  c520
  c521
  c523
  c541
  c544
  c547
  c550
  c556
  c559
  c560
  c561
  c568
  c570
  c571
  c572
  c574
  c575
  c576
  c577
  c579
  c584
  c585
  c587
  c588
  c59
  c591
  c593
  c6
  c600
  c601
  c602
  c603
  c607
  c608
  c609
  c610
  c612
  c630
  c633
  c636
  c639
  c641
  c642
  c645
  c647
  c657
  c658
  c659
  c66
  c660
  c661
  c663
  c664
  c665
  c666
  c668
  c671
  c673
  c674
  c676
  c677
  c680
  c682
  c683
  c684
  c685
  c689
  c690
  c691
  c692
  c696
  c697
  c698
  c699
  c7
  c700
  c701
  c716
  c719
  c722
  c725
  c727
  c728
  c73
  c730
  c731
  c734
  c736
  c737
  c738
  c739
  c746
  c747
  c748
  c749
  c75
  c750
  c752
  c753
  c754
  c755
  c756
  c757
  c76
  c762
  c763
  c769
  c772
  c773
  c774
  c778
  c780
  c781
  c785
  c786
  c787
  c788
  c790
  c808
  c811
  c814
  c816
  c817
  c823
  c826
  c827
  c828
  c835
  c837
  c838
  c839
  c841
  c842
  c843
  c844
  c846
  c851
  c852
  c854
  c855
  c858
  c860
  c867
  c868
  c869
  c870
  c874
  c875
  c876
  c877
  c879
  c897
  c900
  c903
  c905
  c906
  c908
  c909
  c912
  c914
  c924
  c925
  c926
  c927
  c930
  c931
  c932
  c933
  c935
  c938
  c940
  c941
  c943
  c944
  c947
  c949
  c950
  c951
  c952
  c956
  c957
  c958
  c959
  c96
  c963
  c964
  c965
  c966
  c967
  c968
  c983
  c986
  c989
  c99
  c992
  c994
  c995
  c997
  c998 )
